####################################################################### 
# 
# This file contains crystal structure data downloaded from the 
# Cambridge Structural Database (CSD) hosted by the Cambridge 
# Crystallographic Data Centre (CCDC).
# 
# Full information about CCDC data access policies and citation 
# guidelines are available at http://www.ccdc.cam.ac.uk/access/V1 
# 
# Audit and citation data items may have been added by the CCDC. 
# Please retain this information to preserve the provenance of 
# this file and to allow appropriate attribution of the data. 
# 
#######################################################################

data_b7a
_audit_block_doi                 10.5517/cc8d2d3
_database_code_depnum_ccdc_archive 'CCDC 249934'
loop_
_citation_id
_citation_doi
_citation_year
1 10.1002/jps.10093 2002
_audit_update_record             
;
2004-09-09 deposited with the CCDC.	2021-03-05 downloaded from the CCDC.
;

_audit_creation_method           SHELXL-97
_chemical_name_systematic        
;
?
;
_chemical_name_common            ?
_chemical_melting_point          ?
_chemical_formula_moiety         ?
_chemical_formula_sum            'C15 H12 N2 O'
_chemical_formula_weight         236.27

loop_
_atom_type_symbol
_atom_type_description
_atom_type_scat_dispersion_real
_atom_type_scat_dispersion_imag
_atom_type_scat_source
C C 0.0033 0.0016 'International Tables Vol C Tables 4.2.6.8 and 6.1.1.4'
H H 0.0000 0.0000 'International Tables Vol C Tables 4.2.6.8 and 6.1.1.4'
N N 0.0061 0.0033 'International Tables Vol C Tables 4.2.6.8 and 6.1.1.4'
O O 0.0106 0.0060 'International Tables Vol C Tables 4.2.6.8 and 6.1.1.4'

_symmetry_cell_setting           Monoclinic
_symmetry_space_group_name_H-M   C2/c

loop_
_symmetry_equiv_pos_as_xyz
'x, y, z'
'-x, y, -z+1/2'
'x+1/2, y+1/2, z'
'-x+1/2, y+1/2, -z+1/2'
'-x, -y, -z'
'x, -y, z-1/2'
'-x+1/2, -y+1/2, -z'
'x+1/2, -y+1/2, z-1/2'

_cell_length_a                   26.609(4)
_cell_length_b                   6.9269(10)
_cell_length_c                   13.957(2)
_cell_angle_alpha                90.00
_cell_angle_beta                 109.702(2)
_cell_angle_gamma                90.00
_cell_volume                     2421.9(6)
_cell_formula_units_Z            8
_cell_measurement_temperature    158(2)
_cell_measurement_reflns_used    4250
_cell_measurement_theta_min      2.44
_cell_measurement_theta_max      12.77

_exptl_crystal_description       block
_exptl_crystal_colour            colorless
_exptl_crystal_size_max          0.14
_exptl_crystal_size_mid          0.18
_exptl_crystal_size_min          0.24
_exptl_crystal_density_meas      ?
_exptl_crystal_density_diffrn    1.296
_exptl_crystal_density_method    'not measured'
_exptl_crystal_F_000             992
_exptl_absorpt_coefficient_mu    0.083
_exptl_absorpt_correction_type   none
_exptl_absorpt_correction_T_min  ?
_exptl_absorpt_correction_T_max  ?
_exptl_absorpt_process_details   ?

_exptl_special_details           
;
full sphere of 2287 frames @ 4.939cm x  30 sec.; 0.3 deg. in omega & phi
;

_diffrn_ambient_temperature      158(2)
_diffrn_radiation_wavelength     0.71073
_diffrn_radiation_type           MoK\a
_diffrn_radiation_source         'sealed tube'
_diffrn_radiation_monochromator  graphite
_diffrn_measurement_device_type  'CCD area detector'
_diffrn_measurement_method       'phi and omega scans'
_diffrn_detector_area_resol_mean ?
_diffrn_standards_number         ?
_diffrn_standards_interval_count ?
_diffrn_standards_interval_time  ?
_diffrn_standards_decay_%        ?
_diffrn_reflns_number            23652
_diffrn_reflns_av_R_equivalents  0.0422
_diffrn_reflns_av_sigmaI/netI    0.0261
_diffrn_reflns_limit_h_min       -33
_diffrn_reflns_limit_h_max       31
_diffrn_reflns_limit_k_min       -8
_diffrn_reflns_limit_k_max       8
_diffrn_reflns_limit_l_min       -17
_diffrn_reflns_limit_l_max       17
_diffrn_reflns_theta_min         1.63
_diffrn_reflns_theta_max         26.39
_reflns_number_total             2488
_reflns_number_gt                1855
_reflns_threshold_expression     >2sigma(I)

_computing_data_collection       'Bruker SMART'
_computing_cell_refinement       'Bruker SMART'
_computing_data_reduction        'Bruker SHELXTL'
_computing_structure_solution    'Bruker SHELXTL'
_computing_structure_refinement  'Bruker SHELXTL'
_computing_molecular_graphics    'Bruker SHELXTL'
_computing_publication_material  'Bruker SHELXTL'

_refine_special_details          
;
Refinement of F^2^ against ALL reflections.  The weighted R-factor wR and
goodness of fit S are based on F^2^, conventional R-factors R are based
on F, with F set to zero for negative F^2^. The threshold expression of
F^2^ > 2sigma(F^2^) is used only for calculating R-factors(gt) etc. and is
not relevant to the choice of reflections for refinement.  R-factors based
on F^2^ are statistically about twice as large as those based on F, and R-
factors based on ALL data will be even larger.
;

_refine_ls_structure_factor_coef Fsqd
_refine_ls_matrix_type           full
_refine_ls_weighting_scheme      calc
_refine_ls_weighting_details     
'calc w==1/[\s^2^(Fo^2^)+(0.0590P)^2^+0.0000P] where P==(Fo^2^+2Fc^2^)/3'
_atom_sites_solution_primary     direct
_atom_sites_solution_secondary   difmap
_atom_sites_solution_hydrogens   difmap
_refine_ls_hydrogen_treatment    refall
_refine_ls_extinction_method     SHELXL
_refine_ls_extinction_coef       0.0018(6)
_refine_ls_extinction_expression Fc^*^==kFc[1+0.001xFc^2^\l^3^/sin(2\q)]^-1/4^
_refine_ls_number_reflns         2488
_refine_ls_number_parameters     213
_refine_ls_number_restraints     0
_refine_ls_R_factor_all          0.0513
_refine_ls_R_factor_gt           0.0357
_refine_ls_wR_factor_ref         0.0956
_refine_ls_wR_factor_gt          0.0909
_refine_ls_goodness_of_fit_ref   1.012
_refine_ls_restrained_S_all      1.012
_refine_ls_shift/su_max          0.000
_refine_ls_shift/su_mean         0.000

loop_
_atom_site_label
_atom_site_type_symbol
_atom_site_fract_x
_atom_site_fract_y
_atom_site_fract_z
_atom_site_U_iso_or_equiv
_atom_site_adp_type
_atom_site_occupancy
_atom_site_symmetry_multiplicity
_atom_site_calc_flag
_atom_site_refinement_flags
_atom_site_disorder_assembly
_atom_site_disorder_group
O1 O 0.07219(3) -0.00551(13) 0.03660(6) 0.0330(2) Uani 1 1 d . . .
N1 N 0.01451(5) 0.1802(2) -0.08412(10) 0.0420(3) Uani 1 1 d . . .
N2 N 0.10588(4) 0.23086(15) -0.03717(8) 0.0294(3) Uani 1 1 d . . .
C1 C 0.06402(5) 0.12780(19) -0.02568(9) 0.0282(3) Uani 1 1 d . . .
C2 C 0.15962(5) 0.16618(18) 0.01395(9) 0.0275(3) Uani 1 1 d . . .
C3 C 0.18407(5) 0.2041(2) 0.11679(10) 0.0330(3) Uani 1 1 d . . .
H3 H 0.1649(5) 0.278(2) 0.1521(11) 0.043(4) Uiso 1 1 d . . .
C4 C 0.23486(5) 0.1364(2) 0.16745(11) 0.0382(3) Uani 1 1 d . . .
H4 H 0.2518(6) 0.160(2) 0.2404(12) 0.045(4) Uiso 1 1 d . . .
C5 C 0.26147(5) 0.0297(2) 0.11551(11) 0.0377(3) Uani 1 1 d . . .
H5 H 0.2981(6) -0.0214(19) 0.1488(11) 0.041(4) Uiso 1 1 d . . .
C6 C 0.23759(5) -0.00475(19) 0.01286(11) 0.0358(3) Uani 1 1 d . . .
H6 H 0.2559(6) -0.073(2) -0.0243(11) 0.040(4) Uiso 1 1 d . . .
C7 C 0.18620(5) 0.06323(18) -0.04090(10) 0.0305(3) Uani 1 1 d . . .
C8 C 0.16329(6) 0.0269(2) -0.15031(11) 0.0378(3) Uani 1 1 d . . .
H8 H 0.1793(5) -0.091(2) -0.1715(10) 0.042(4) Uiso 1 1 d . . .
C9 C 0.12835(6) 0.1351(2) -0.22176(11) 0.0393(4) Uani 1 1 d . . .
H9 H 0.1205(6) 0.096(2) -0.2954(11) 0.047(4) Uiso 1 1 d . . .
C10 C 0.10543(5) 0.3185(2) -0.20777(9) 0.0329(3) Uani 1 1 d . . .
C11 C 0.09166(6) 0.4560(2) -0.28652(10) 0.0417(4) Uani 1 1 d . . .
H11 H 0.0970(6) 0.419(2) -0.3501(12) 0.047(4) Uiso 1 1 d . . .
C12 C 0.07308(6) 0.6360(2) -0.27455(11) 0.0451(4) Uani 1 1 d . . .
H12 H 0.0631(6) 0.735(2) -0.3304(13) 0.056(4) Uiso 1 1 d . . .
C13 C 0.06744(6) 0.6870(2) -0.18278(12) 0.0435(4) Uani 1 1 d . . .
H13 H 0.0549(6) 0.813(2) -0.1731(11) 0.050(4) Uiso 1 1 d . . .
C14 C 0.08000(5) 0.5551(2) -0.10388(11) 0.0360(3) Uani 1 1 d . . .
H14 H 0.0751(6) 0.591(2) -0.0384(11) 0.044(4) Uiso 1 1 d . . .
C15 C 0.09763(5) 0.37203(19) -0.11657(9) 0.0302(3) Uani 1 1 d . . .
H1B H -0.0140(6) 0.124(2) -0.0708(11) 0.041(4) Uiso 1 1 d . . .
H1A H 0.0092(6) 0.277(2) -0.1245(13) 0.053(5) Uiso 1 1 d . . .

loop_
_atom_site_aniso_label
_atom_site_aniso_U_11
_atom_site_aniso_U_22
_atom_site_aniso_U_33
_atom_site_aniso_U_23
_atom_site_aniso_U_13
_atom_site_aniso_U_12
O1 0.0271(5) 0.0426(6) 0.0291(5) 0.0101(4) 0.0091(4) -0.0021(4)
N1 0.0251(6) 0.0563(8) 0.0427(8) 0.0240(6) 0.0091(5) -0.0019(6)
N2 0.0239(5) 0.0405(6) 0.0243(6) 0.0076(5) 0.0087(4) -0.0023(4)
C1 0.0272(6) 0.0370(8) 0.0219(6) 0.0022(5) 0.0099(5) -0.0017(5)
C2 0.0251(6) 0.0310(7) 0.0274(7) 0.0047(5) 0.0100(5) -0.0037(5)
C3 0.0298(7) 0.0439(8) 0.0267(7) 0.0032(6) 0.0115(6) -0.0011(6)
C4 0.0291(7) 0.0504(9) 0.0313(8) 0.0063(7) 0.0052(6) -0.0052(6)
C5 0.0258(7) 0.0372(8) 0.0483(9) 0.0100(7) 0.0100(6) -0.0020(6)
C6 0.0326(7) 0.0300(7) 0.0496(9) 0.0002(6) 0.0201(7) -0.0029(6)
C7 0.0314(7) 0.0280(7) 0.0338(7) -0.0014(5) 0.0133(6) -0.0081(5)
C8 0.0397(8) 0.0382(8) 0.0393(8) -0.0117(7) 0.0182(7) -0.0114(6)
C9 0.0429(8) 0.0505(9) 0.0263(7) -0.0099(7) 0.0142(6) -0.0181(7)
C10 0.0290(7) 0.0437(8) 0.0239(7) -0.0003(6) 0.0062(5) -0.0161(6)
C11 0.0380(8) 0.0607(11) 0.0244(7) 0.0034(7) 0.0079(6) -0.0185(7)
C12 0.0410(8) 0.0532(10) 0.0356(9) 0.0175(7) 0.0056(7) -0.0132(7)
C13 0.0391(8) 0.0421(9) 0.0461(9) 0.0098(7) 0.0101(7) -0.0072(7)
C14 0.0330(7) 0.0433(8) 0.0317(7) 0.0047(6) 0.0111(6) -0.0042(6)
C15 0.0246(6) 0.0404(8) 0.0237(7) 0.0055(6) 0.0057(5) -0.0069(5)

_geom_special_details            
;
All esds (except the esd in the dihedral angle between two l.s. planes)
are estimated using the full covariance matrix.  The cell esds are taken
into account individually in the estimation of esds in distances, angles
and torsion angles; correlations between esds in cell parameters are only
used when they are defined by crystal symmetry.  An approximate (isotropic)
treatment of cell esds is used for estimating esds involving l.s. planes.
;

loop_
_geom_bond_atom_site_label_1
_geom_bond_atom_site_label_2
_geom_bond_distance
_geom_bond_site_symmetry_2
_geom_bond_publ_flag
O1 C1 1.2362(14) . ?
N1 C1 1.3446(16) . ?
N2 C1 1.3772(15) . ?
N2 C2 1.4374(15) . ?
N2 C15 1.4382(15) . ?
C2 C3 1.3866(18) . ?
C2 C7 1.3999(17) . ?
C3 C4 1.3791(19) . ?
C4 C5 1.385(2) . ?
C5 C6 1.378(2) . ?
C6 C7 1.4010(19) . ?
C7 C8 1.4626(19) . ?
C8 C9 1.340(2) . ?
C9 C10 1.450(2) . ?
C10 C11 1.4066(19) . ?
C10 C15 1.4067(17) . ?
C11 C12 1.372(2) . ?
C12 C13 1.385(2) . ?
C13 C14 1.3826(19) . ?
C14 C15 1.384(2) . ?

loop_
_geom_angle_atom_site_label_1
_geom_angle_atom_site_label_2
_geom_angle_atom_site_label_3
_geom_angle
_geom_angle_site_symmetry_1
_geom_angle_site_symmetry_3
_geom_angle_publ_flag
C1 N2 C2 119.27(10) . . ?
C1 N2 C15 121.52(10) . . ?
C2 N2 C15 117.54(9) . . ?
O1 C1 N1 122.16(11) . . ?
O1 C1 N2 120.77(11) . . ?
N1 C1 N2 117.07(11) . . ?
C3 C2 C7 121.01(12) . . ?
C3 C2 N2 119.73(11) . . ?
C7 C2 N2 119.26(11) . . ?
C4 C3 C2 120.21(13) . . ?
C3 C4 C5 119.90(13) . . ?
C6 C5 C4 119.90(13) . . ?
C5 C6 C7 121.55(13) . . ?
C2 C7 C6 117.40(12) . . ?
C2 C7 C8 123.29(12) . . ?
C6 C7 C8 119.30(12) . . ?
C9 C8 C7 128.42(14) . . ?
C8 C9 C10 127.40(13) . . ?
C11 C10 C15 116.70(13) . . ?
C11 C10 C9 119.91(13) . . ?
C15 C10 C9 123.35(12) . . ?
C12 C11 C10 122.01(14) . . ?
C11 C12 C13 120.03(14) . . ?
C14 C13 C12 119.71(16) . . ?
C13 C14 C15 120.33(14) . . ?
C14 C15 C10 121.14(12) . . ?
C14 C15 N2 119.64(12) . . ?
C10 C15 N2 119.15(12) . . ?

loop_
_geom_hbond_atom_site_label_D
_geom_hbond_atom_site_label_H
_geom_hbond_atom_site_label_A
_geom_hbond_distance_DH
_geom_hbond_distance_HA
_geom_hbond_distance_DA
_geom_hbond_angle_DHA
_geom_hbond_site_symmetry_A
N1 H1B O1 0.926(15) 1.949(15) 2.8738(15) 177.6(13) 5

_diffrn_measured_fraction_theta_max 1.000
_diffrn_reflns_theta_full        26.39
_diffrn_measured_fraction_theta_full 1.000
_refine_diff_density_max         0.209
_refine_diff_density_min         -0.190
_refine_diff_density_rms         0.033
