####################################################################### 
# 
# This file contains crystal structure data downloaded from the 
# Cambridge Structural Database (CSD) hosted by the Cambridge 
# Crystallographic Data Centre (CCDC).
# 
# Full information about CCDC data access policies and citation 
# guidelines are available at http://www.ccdc.cam.ac.uk/access/V1 
# 
# Audit and citation data items may have been added by the CCDC. 
# Please retain this information to preserve the provenance of 
# this file and to allow appropriate attribution of the data. 
# 
#######################################################################

data_tri
_audit_block_doi                 10.5517/cc67gd8
_database_code_depnum_ccdc_archive 'CCDC 185919'
loop_
_citation_id
_citation_doi
_citation_year
1 10.1002/jps.10455 2003
_audit_update_record             
;
2002-05-15 deposited with the CCDC.	2021-03-05 downloaded from the CCDC.
;

_audit_creation_method           SHELXL-97
_chemical_name_systematic        
;
?
;
_chemical_name_common            carbamazepine
_chemical_melting_point          191
_chemical_formula_moiety         ?
_chemical_formula_sum            'C15 H12 N2 O'
_chemical_formula_weight         236.27

loop_
_atom_type_symbol
_atom_type_description
_atom_type_scat_dispersion_real
_atom_type_scat_dispersion_imag
_atom_type_scat_source
C C 0.0033 0.0016 'International Tables Vol C Tables 4.2.6.8 and 6.1.1.4'
H H 0.0000 0.0000 'International Tables Vol C Tables 4.2.6.8 and 6.1.1.4'
N N 0.0061 0.0033 'International Tables Vol C Tables 4.2.6.8 and 6.1.1.4'
O O 0.0106 0.0060 'International Tables Vol C Tables 4.2.6.8 and 6.1.1.4'

_symmetry_cell_setting           Triclinic
_symmetry_space_group_name_H-M   P-1

loop_
_symmetry_equiv_pos_as_xyz
'x, y, z'
'-x, -y, -z'

_cell_length_a                   5.1705(6)
_cell_length_b                   20.574(2)
_cell_length_c                   22.245(2)
_cell_angle_alpha                84.124(4)
_cell_angle_beta                 88.008(4)
_cell_angle_gamma                85.187(4)
_cell_volume                     2344.8(5)
_cell_formula_units_Z            8
_cell_measurement_temperature    158(2)
_cell_measurement_reflns_used    3459
_cell_measurement_theta_min      2.18
_cell_measurement_theta_max      21.31

_exptl_crystal_description       needle
_exptl_crystal_colour            colorless
_exptl_crystal_size_max          0.04
_exptl_crystal_size_mid          0.04
_exptl_crystal_size_min          0.60
_exptl_crystal_density_meas      ?
_exptl_crystal_density_diffrn    1.339
_exptl_crystal_density_method    'not measured'
_exptl_crystal_F_000             992
_exptl_absorpt_coefficient_mu    0.086
_exptl_absorpt_correction_type   none
_exptl_absorpt_correction_T_min  ?
_exptl_absorpt_correction_T_max  ?
_exptl_absorpt_process_details   ?

_exptl_special_details           
;
full sphere of 3008 frames x 75 sec. @ 4.959 cm
0.3 deg. steps in omega & phi
;

_diffrn_ambient_temperature      158(2)
_diffrn_radiation_wavelength     0.71073
_diffrn_radiation_type           MoK\a
_diffrn_radiation_source         'sealed tube'
_diffrn_radiation_monochromator  graphite
_diffrn_measurement_device_type  'CCD area detector'
_diffrn_measurement_method       'phi and omega scans'
_diffrn_detector_area_resol_mean ?
_diffrn_standards_number         ?
_diffrn_standards_interval_count ?
_diffrn_standards_interval_time  ?
_diffrn_standards_decay_%        ?
_diffrn_reflns_number            20075
_diffrn_reflns_av_R_equivalents  0.0748
_diffrn_reflns_av_sigmaI/netI    0.1018
_diffrn_reflns_limit_h_min       -5
_diffrn_reflns_limit_h_max       5
_diffrn_reflns_limit_k_min       -22
_diffrn_reflns_limit_k_max       22
_diffrn_reflns_limit_l_min       -24
_diffrn_reflns_limit_l_max       24
_diffrn_reflns_theta_min         2.00
_diffrn_reflns_theta_max         23.37
_reflns_number_total             6768
_reflns_number_gt                3713
_reflns_threshold_expression     >2sigma(I)

_computing_data_collection       'Bruker SMART'
_computing_cell_refinement       'Bruker SMART'
_computing_data_reduction        'Bruker SHELXTL'
_computing_structure_solution    'Bruker SHELXTL'
_computing_structure_refinement  'Bruker SHELXTL'
_computing_molecular_graphics    'Bruker SHELXTL'
_computing_publication_material  'Bruker SHELXTL'

_refine_special_details          
;
Refinement of F^2^ against ALL reflections.  The weighted R-factor wR and
goodness of fit S are based on F^2^, conventional R-factors R are based
on F, with F set to zero for negative F^2^. The threshold expression of
F^2^ > 2sigma(F^2^) is used only for calculating R-factors(gt) etc. and is
not relevant to the choice of reflections for refinement.  R-factors based
on F^2^ are statistically about twice as large as those based on F, and R-
factors based on ALL data will be even larger.
;

_refine_ls_structure_factor_coef Fsqd
_refine_ls_matrix_type           full
_refine_ls_weighting_scheme      calc
_refine_ls_weighting_details     
'calc w=1/[\s^2^(Fo^2^)+(0.0366P)^2^+0.0000P] where P=(Fo^2^+2Fc^2^)/3'
_atom_sites_solution_primary     direct
_atom_sites_solution_secondary   difmap
_atom_sites_solution_hydrogens   difmap
_refine_ls_hydrogen_treatment    refall
_refine_ls_extinction_method     SHELXL
_refine_ls_extinction_coef       0.0105(6)
_refine_ls_extinction_expression Fc^*^=kFc[1+0.001xFc^2^\l^3^/sin(2\q)]^-1/4^
_refine_ls_number_reflns         6768
_refine_ls_number_parameters     842
_refine_ls_number_restraints     0
_refine_ls_R_factor_all          0.1136
_refine_ls_R_factor_gt           0.0506
_refine_ls_wR_factor_ref         0.1011
_refine_ls_wR_factor_gt          0.0893
_refine_ls_goodness_of_fit_ref   0.996
_refine_ls_restrained_S_all      0.996
_refine_ls_shift/su_max          0.000
_refine_ls_shift/su_mean         0.000

loop_
_atom_site_label
_atom_site_type_symbol
_atom_site_fract_x
_atom_site_fract_y
_atom_site_fract_z
_atom_site_U_iso_or_equiv
_atom_site_adp_type
_atom_site_occupancy
_atom_site_symmetry_multiplicity
_atom_site_calc_flag
_atom_site_refinement_flags
_atom_site_disorder_assembly
_atom_site_disorder_group
O1 O 1.1832(4) 0.78222(11) 0.02198(9) 0.0366(6) Uani 1 1 d . . .
O2 O 0.1701(4) 0.56099(10) 0.45267(9) 0.0336(6) Uani 1 1 d . . .
O3 O 0.5164(4) 0.19421(10) 0.83735(9) 0.0324(6) Uani 1 1 d . . .
O4 O 0.2888(4) 0.07013(10) 0.52222(10) 0.0344(6) Uani 1 1 d . . .
N1 N 1.0898(7) 0.73812(15) 0.11714(13) 0.0337(8) Uani 1 1 d . . .
H1A H 1.226(7) 0.7664(17) 0.1364(15) 0.068(12) Uiso 1 1 d . . .
H1B H 0.973(7) 0.7185(17) 0.1367(16) 0.052(13) Uiso 1 1 d . . .
N2 N 0.9406(5) 0.69441(12) 0.03381(11) 0.0278(7) Uani 1 1 d . . .
N3 N 0.2506(7) 0.45109(16) 0.45940(14) 0.0359(8) Uani 1 1 d . . .
H3A H 0.121(7) 0.4458(16) 0.4875(16) 0.053(13) Uiso 1 1 d . . .
H3B H 0.344(6) 0.4176(15) 0.4502(14) 0.034(11) Uiso 1 1 d . . .
N4 N 0.4447(5) 0.51641(12) 0.38254(11) 0.0283(7) Uani 1 1 d . . .
N5 N 0.5146(7) 0.12622(18) 0.92400(14) 0.0371(9) Uani 1 1 d . . .
H5A H 0.588(7) 0.1541(16) 0.9408(15) 0.043(12) Uiso 1 1 d . . .
H5B H 0.458(8) 0.0918(19) 0.9437(17) 0.075(16) Uiso 1 1 d . . .
N6 N 0.3357(5) 0.09756(12) 0.83753(11) 0.0267(7) Uani 1 1 d . . .
N7 N 0.2725(7) 0.01825(15) 0.43739(15) 0.0360(8) Uani 1 1 d . . .
H7A H 0.402(7) -0.0078(18) 0.4501(16) 0.056(14) Uiso 1 1 d . . .
H7B H 0.181(7) 0.0149(17) 0.4078(16) 0.059(14) Uiso 1 1 d . . .
N8 N 0.0340(5) 0.11749(12) 0.44591(11) 0.0274(7) Uani 1 1 d . . .
C1 C 1.0765(6) 0.74070(16) 0.05660(16) 0.0288(8) Uani 1 1 d . . .
C2 C 0.8799(7) 0.63496(15) 0.06982(14) 0.0278(8) Uani 1 1 d . . .
C3 C 0.6714(7) 0.63669(18) 0.11019(15) 0.0326(9) Uani 1 1 d . . .
H3 H 0.556(5) 0.6803(13) 0.1134(12) 0.028(9) Uiso 1 1 d . . .
C4 C 0.6178(8) 0.58036(19) 0.14709(16) 0.0363(10) Uani 1 1 d . . .
H4 H 0.460(6) 0.5822(14) 0.1758(14) 0.046(10) Uiso 1 1 d . . .
C5 C 0.7739(8) 0.5229(2) 0.14175(17) 0.0419(10) Uani 1 1 d . . .
H5 H 0.731(6) 0.4834(16) 0.1669(14) 0.053(11) Uiso 1 1 d . . .
C6 C 0.9834(8) 0.52120(18) 0.10170(16) 0.0373(10) Uani 1 1 d . . .
H6 H 1.099(6) 0.4831(15) 0.0971(13) 0.039(10) Uiso 1 1 d . . .
C7 C 1.0421(6) 0.57740(16) 0.06396(14) 0.0298(9) Uani 1 1 d . . .
C8 C 1.2642(7) 0.57388(18) 0.02203(17) 0.0356(10) Uani 1 1 d . . .
H8 H 1.402(7) 0.5415(16) 0.0359(14) 0.058(12) Uiso 1 1 d . . .
C9 C 1.2937(7) 0.60782(17) -0.03179(16) 0.0341(9) Uani 1 1 d . . .
H9 H 1.450(6) 0.5987(13) -0.0582(13) 0.031(9) Uiso 1 1 d . . .
C10 C 1.0986(7) 0.65518(15) -0.06193(15) 0.0311(9) Uani 1 1 d . . .
C11 C 1.0821(8) 0.65864(17) -0.12513(16) 0.0389(10) Uani 1 1 d . . .
H11 H 1.213(7) 0.6319(17) -0.1488(16) 0.068(13) Uiso 1 1 d . . .
C12 C 0.8857(8) 0.69802(18) -0.15483(18) 0.0437(11) Uani 1 1 d . . .
H12 H 0.865(6) 0.6990(14) -0.1995(14) 0.044(10) Uiso 1 1 d . . .
C13 C 0.7051(9) 0.73524(18) -0.12216(17) 0.0408(10) Uani 1 1 d . . .
H13 H 0.567(6) 0.7608(16) -0.1423(14) 0.048(11) Uiso 1 1 d . . .
C14 C 0.7229(8) 0.73391(17) -0.05994(16) 0.0358(10) Uani 1 1 d . . .
H14 H 0.595(6) 0.7594(13) -0.0381(12) 0.025(9) Uiso 1 1 d . . .
C15 C 0.9222(7) 0.69478(15) -0.03051(14) 0.0290(9) Uani 1 1 d . . .
C16 C 0.2838(6) 0.51155(17) 0.43291(14) 0.0281(8) Uani 1 1 d . . .
C17 C 0.5238(6) 0.46105(15) 0.35013(14) 0.0271(8) Uani 1 1 d . . .
C18 C 0.7275(7) 0.41710(18) 0.37062(18) 0.0379(10) Uani 1 1 d . . .
H18 H 0.829(8) 0.4260(18) 0.4019(17) 0.079(15) Uiso 1 1 d . . .
C19 C 0.7940(9) 0.36168(19) 0.3412(2) 0.0434(11) Uani 1 1 d . . .
H19 H 0.935(6) 0.3380(15) 0.3570(14) 0.040(11) Uiso 1 1 d . . .
C20 C 0.6639(9) 0.35122(19) 0.2911(2) 0.0463(11) Uani 1 1 d . . .
H20 H 0.719(5) 0.3136(14) 0.2718(13) 0.031(10) Uiso 1 1 d . . .
C21 C 0.4595(8) 0.39470(18) 0.27023(17) 0.0410(10) Uani 1 1 d . . .
H21 H 0.365(6) 0.3853(14) 0.2345(14) 0.039(10) Uiso 1 1 d . . .
C22 C 0.3864(6) 0.45097(15) 0.29917(15) 0.0303(9) Uani 1 1 d . . .
C23 C 0.1705(7) 0.49615(18) 0.27572(15) 0.0340(9) Uani 1 1 d . . .
H23 H 0.041(6) 0.4738(14) 0.2541(13) 0.043(10) Uiso 1 1 d . . .
C24 C 0.1410(8) 0.56116(19) 0.27721(16) 0.0348(10) Uani 1 1 d . . .
H24 H 0.005(6) 0.5828(14) 0.2589(13) 0.030(10) Uiso 1 1 d . . .
C25 C 0.3176(6) 0.60211(15) 0.30180(14) 0.0287(9) Uani 1 1 d . . .
C26 C 0.3470(7) 0.66584(17) 0.27379(16) 0.0329(9) Uani 1 1 d . . .
H26 H 0.228(6) 0.6823(14) 0.2409(14) 0.042(10) Uiso 1 1 d . . .
C27 C 0.5271(7) 0.70386(18) 0.29249(16) 0.0338(9) Uani 1 1 d . . .
H27 H 0.549(6) 0.7474(15) 0.2731(13) 0.047(11) Uiso 1 1 d . . .
C28 C 0.6840(7) 0.68032(17) 0.34037(16) 0.0338(9) Uani 1 1 d . . .
H28 H 0.812(5) 0.7046(13) 0.3545(12) 0.020(9) Uiso 1 1 d . . .
C29 C 0.6557(7) 0.61857(16) 0.36993(15) 0.0294(9) Uani 1 1 d . . .
H29 H 0.765(6) 0.6036(15) 0.4043(14) 0.046(10) Uiso 1 1 d . . .
C30 C 0.4741(6) 0.58042(15) 0.35101(14) 0.0268(8) Uani 1 1 d . . .
C31 C 0.4589(6) 0.14218(17) 0.86498(15) 0.0294(9) Uani 1 1 d . . .
C32 C 0.3086(7) 0.03189(16) 0.86448(14) 0.0293(9) Uani 1 1 d . . .
C33 C 0.1119(8) 0.01894(19) 0.90591(15) 0.0352(9) Uani 1 1 d . . .
H33 H -0.012(6) 0.0544(14) 0.9154(13) 0.033(10) Uiso 1 1 d . . .
C34 C 0.0916(9) -0.0445(2) 0.93315(17) 0.0446(11) Uani 1 1 d . . .
H34 H -0.056(7) -0.0506(16) 0.9616(15) 0.057(12) Uiso 1 1 d . . .
C35 C 0.2693(9) -0.0944(2) 0.91864(17) 0.0457(11) Uani 1 1 d . . .
H35 H 0.271(6) -0.1401(17) 0.9343(15) 0.062(12) Uiso 1 1 d . . .
C36 C 0.4669(8) -0.08210(18) 0.87691(17) 0.0419(10) Uani 1 1 d . . .
H36 H 0.590(7) -0.1189(17) 0.8630(15) 0.062(12) Uiso 1 1 d . . .
C37 C 0.4887(7) -0.01856(16) 0.84764(14) 0.0308(9) Uani 1 1 d . . .
C38 C 0.6898(8) -0.00831(17) 0.80126(16) 0.0348(10) Uani 1 1 d . . .
H38 H 0.842(5) -0.0353(13) 0.8012(12) 0.020(9) Uiso 1 1 d . . .
C39 C 0.6780(7) 0.03349(16) 0.75108(16) 0.0341(9) Uani 1 1 d . . .
H39 H 0.837(5) 0.0328(11) 0.7208(11) 0.028(7) Uiso 1 1 d . . .
C40 C 0.4570(6) 0.07975(15) 0.73273(14) 0.0273(8) Uani 1 1 d . . .
C41 C 0.4070(7) 0.09496(17) 0.67067(15) 0.0330(9) Uani 1 1 d . . .
H41 H 0.518(5) 0.0735(13) 0.6424(13) 0.027(9) Uiso 1 1 d . . .
C42 C 0.1952(7) 0.13544(17) 0.65139(17) 0.0345(9) Uani 1 1 d . . .
H42 H 0.177(7) 0.1451(16) 0.6092(16) 0.067(13) Uiso 1 1 d . . .
C43 C 0.0305(8) 0.16411(17) 0.69281(16) 0.0312(9) Uani 1 1 d . . .
H43 H -0.123(6) 0.1901(15) 0.6809(14) 0.045(11) Uiso 1 1 d . . .
C44 C 0.0763(7) 0.15087(16) 0.75448(16) 0.0304(9) Uani 1 1 d . . .
H44 H -0.042(6) 0.1699(15) 0.7834(14) 0.047(11) Uiso 1 1 d . . .
C45 C 0.2877(7) 0.10994(15) 0.77342(14) 0.0266(8) Uani 1 1 d . . .
C46 C 0.2049(6) 0.06775(16) 0.47133(16) 0.0287(8) Uani 1 1 d . . .
C47 C -0.0151(6) 0.12527(15) 0.38218(14) 0.0290(9) Uani 1 1 d . . .
C48 C -0.1962(7) 0.08924(18) 0.35914(18) 0.0387(10) Uani 1 1 d . . .
H48 H -0.299(7) 0.0562(17) 0.3885(16) 0.071(13) Uiso 1 1 d . . .
C49 C -0.2391(9) 0.0951(2) 0.2976(2) 0.0502(12) Uani 1 1 d . . .
H49 H -0.368(6) 0.0700(15) 0.2844(14) 0.043(11) Uiso 1 1 d . . .
C50 C -0.0998(10) 0.1376(2) 0.2594(2) 0.0559(13) Uani 1 1 d . . .
H50 H -0.139(7) 0.1392(17) 0.2184(17) 0.064(13) Uiso 1 1 d . . .
C51 C 0.0811(9) 0.1729(2) 0.28227(17) 0.0473(11) Uani 1 1 d . . .
H51 H 0.188(6) 0.2049(14) 0.2542(13) 0.038(10) Uiso 1 1 d . . .
C52 C 0.1263(7) 0.16910(16) 0.34421(15) 0.0326(9) Uani 1 1 d . . .
C53 C 0.3131(8) 0.20926(17) 0.36698(18) 0.0371(10) Uani 1 1 d . . .
H53 H 0.441(6) 0.2205(14) 0.3398(14) 0.036(10) Uiso 1 1 d . . .
C54 C 0.3048(7) 0.23549(17) 0.41963(17) 0.0349(9) Uani 1 1 d . . .
H54 H 0.452(6) 0.2628(15) 0.4275(13) 0.045(10) Uiso 1 1 d . . .
C55 C 0.1034(6) 0.22911(15) 0.46711(14) 0.0275(8) Uani 1 1 d . . .
C56 C 0.0338(7) 0.28171(17) 0.50142(16) 0.0350(10) Uani 1 1 d . . .
H56 H 0.132(6) 0.3204(15) 0.4943(13) 0.038(9) Uiso 1 1 d . . .
C57 C -0.1680(7) 0.28005(18) 0.54357(17) 0.0352(9) Uani 1 1 d . . .
H57 H -0.204(6) 0.3186(14) 0.5649(13) 0.035(9) Uiso 1 1 d . . .
C58 C -0.3051(7) 0.22490(17) 0.55322(16) 0.0328(9) Uani 1 1 d . . .
H58 H -0.464(6) 0.2231(14) 0.5794(13) 0.040(10) Uiso 1 1 d . . .
C59 C -0.2390(7) 0.17181(17) 0.52056(15) 0.0277(9) Uani 1 1 d . . .
H59 H -0.334(6) 0.1349(15) 0.5269(13) 0.041(10) Uiso 1 1 d . . .
C60 C -0.0362(6) 0.17393(15) 0.47841(14) 0.0254(8) Uani 1 1 d . . .

loop_
_atom_site_aniso_label
_atom_site_aniso_U_11
_atom_site_aniso_U_22
_atom_site_aniso_U_33
_atom_site_aniso_U_23
_atom_site_aniso_U_13
_atom_site_aniso_U_12
O1 0.0499(17) 0.0320(14) 0.0283(14) 0.0022(11) 0.0021(12) -0.0135(12)
O2 0.0426(16) 0.0246(14) 0.0322(14) 0.0007(11) 0.0068(12) -0.0015(12)
O3 0.0422(16) 0.0255(14) 0.0295(14) 0.0033(11) -0.0034(11) -0.0094(12)
O4 0.0430(16) 0.0292(14) 0.0297(15) -0.0014(11) -0.0046(12) 0.0038(11)
N1 0.039(2) 0.037(2) 0.025(2) -0.0010(15) 0.0027(16) -0.0107(17)
N2 0.0370(19) 0.0236(17) 0.0229(17) 0.0016(13) -0.0013(13) -0.0067(14)
N3 0.042(2) 0.024(2) 0.037(2) 0.0043(16) 0.0168(18) 0.0030(17)
N4 0.0386(19) 0.0222(17) 0.0222(17) 0.0035(13) 0.0038(14) -0.0004(14)
N5 0.052(2) 0.033(2) 0.027(2) -0.0032(17) -0.0043(16) -0.0121(18)
N6 0.0369(19) 0.0224(16) 0.0205(16) 0.0002(13) -0.0015(13) -0.0033(14)
N7 0.047(2) 0.027(2) 0.034(2) -0.0090(16) -0.0117(18) 0.0074(18)
N8 0.0353(19) 0.0206(16) 0.0255(17) -0.0022(13) -0.0033(14) 0.0041(14)
C1 0.029(2) 0.024(2) 0.033(2) -0.0043(17) -0.0006(18) 0.0040(17)
C2 0.029(2) 0.028(2) 0.026(2) 0.0021(16) -0.0032(17) -0.0055(17)
C3 0.032(2) 0.035(2) 0.031(2) -0.0024(18) 0.0011(18) -0.0040(19)
C4 0.039(3) 0.044(3) 0.026(2) 0.0015(19) 0.0027(19) -0.012(2)
C5 0.052(3) 0.040(3) 0.034(2) 0.005(2) -0.009(2) -0.016(2)
C6 0.050(3) 0.026(2) 0.036(2) 0.0009(19) -0.008(2) -0.004(2)
C7 0.030(2) 0.032(2) 0.028(2) -0.0016(17) -0.0056(17) -0.0058(18)
C8 0.035(3) 0.034(2) 0.038(3) -0.0071(19) -0.004(2) 0.000(2)
C9 0.035(3) 0.036(2) 0.031(2) -0.0091(19) 0.003(2) 0.0024(19)
C10 0.040(2) 0.027(2) 0.026(2) -0.0005(16) 0.0002(18) -0.0045(18)
C11 0.058(3) 0.028(2) 0.030(2) -0.0031(18) 0.005(2) -0.005(2)
C12 0.076(3) 0.032(2) 0.024(2) 0.0003(19) -0.002(2) -0.010(2)
C13 0.062(3) 0.028(2) 0.032(3) 0.0085(19) -0.011(2) -0.006(2)
C14 0.042(3) 0.030(2) 0.034(2) 0.0019(18) 0.000(2) 0.001(2)
C15 0.036(2) 0.028(2) 0.023(2) -0.0004(16) 0.0020(18) -0.0068(18)
C16 0.034(2) 0.025(2) 0.024(2) 0.0034(17) -0.0001(17) -0.0006(18)
C17 0.029(2) 0.024(2) 0.027(2) -0.0013(16) 0.0098(17) -0.0032(18)
C18 0.036(3) 0.033(2) 0.043(3) 0.002(2) 0.004(2) 0.000(2)
C19 0.040(3) 0.033(3) 0.053(3) 0.005(2) 0.008(2) 0.003(2)
C20 0.063(3) 0.022(2) 0.053(3) -0.005(2) 0.026(2) -0.006(2)
C21 0.059(3) 0.031(2) 0.034(2) -0.0052(19) 0.012(2) -0.013(2)
C22 0.035(2) 0.025(2) 0.029(2) 0.0015(17) 0.0076(18) -0.0047(18)
C23 0.034(3) 0.039(3) 0.029(2) 0.0009(18) 0.0008(18) -0.009(2)
C24 0.035(3) 0.037(3) 0.031(2) 0.0057(18) -0.0048(19) -0.004(2)
C25 0.034(2) 0.028(2) 0.022(2) 0.0042(16) 0.0001(17) -0.0003(17)
C26 0.037(3) 0.029(2) 0.030(2) 0.0075(17) 0.0010(19) -0.0022(19)
C27 0.042(3) 0.023(2) 0.034(2) 0.0074(18) 0.0047(19) -0.0011(19)
C28 0.034(3) 0.030(2) 0.037(2) -0.0061(19) 0.0028(19) -0.005(2)
C29 0.031(2) 0.030(2) 0.026(2) -0.0023(17) -0.0008(18) -0.0003(18)
C30 0.030(2) 0.026(2) 0.023(2) 0.0032(16) 0.0036(17) -0.0009(17)
C31 0.034(2) 0.035(2) 0.018(2) -0.0048(18) -0.0013(17) 0.0038(18)
C32 0.040(2) 0.028(2) 0.0191(19) 0.0047(16) -0.0027(18) -0.0079(19)
C33 0.042(3) 0.037(3) 0.026(2) 0.0026(19) -0.0008(19) -0.005(2)
C34 0.056(3) 0.052(3) 0.026(2) 0.008(2) -0.004(2) -0.019(3)
C35 0.074(3) 0.030(3) 0.033(2) 0.008(2) -0.015(2) -0.011(2)
C36 0.058(3) 0.031(3) 0.037(2) 0.004(2) -0.008(2) -0.007(2)
C37 0.039(2) 0.026(2) 0.028(2) 0.0020(17) -0.0064(18) -0.0066(18)
C38 0.036(3) 0.027(2) 0.041(3) -0.0061(19) -0.001(2) 0.006(2)
C39 0.036(3) 0.030(2) 0.036(2) -0.0025(18) 0.001(2) -0.0001(19)
C40 0.032(2) 0.024(2) 0.026(2) -0.0015(16) 0.0036(17) -0.0031(17)
C41 0.042(3) 0.035(2) 0.021(2) -0.0053(17) 0.0056(19) 0.000(2)
C42 0.041(3) 0.035(2) 0.027(2) 0.0003(18) -0.003(2) -0.003(2)
C43 0.033(3) 0.026(2) 0.032(2) 0.0045(17) -0.001(2) -0.0017(19)
C44 0.031(2) 0.032(2) 0.028(2) -0.0047(17) 0.0032(19) -0.0003(18)
C45 0.035(2) 0.025(2) 0.020(2) -0.0004(15) 0.0013(17) -0.0066(18)
C46 0.033(2) 0.022(2) 0.030(2) -0.0010(18) 0.0024(18) -0.0033(17)
C47 0.030(2) 0.027(2) 0.029(2) -0.0041(17) -0.0002(18) 0.0070(17)
C48 0.034(3) 0.041(2) 0.043(3) -0.015(2) -0.002(2) 0.003(2)
C49 0.042(3) 0.062(3) 0.049(3) -0.028(2) -0.014(2) 0.011(2)
C50 0.076(4) 0.056(3) 0.031(3) -0.010(2) -0.012(3) 0.032(3)
C51 0.070(3) 0.036(3) 0.031(3) 0.005(2) -0.001(2) 0.015(2)
C52 0.036(2) 0.028(2) 0.031(2) 0.0019(17) -0.0002(18) 0.0097(18)
C53 0.043(3) 0.028(2) 0.037(3) 0.0087(19) 0.012(2) -0.0009(19)
C54 0.033(3) 0.025(2) 0.045(3) 0.0038(18) 0.004(2) -0.0017(18)
C55 0.028(2) 0.024(2) 0.029(2) 0.0024(16) -0.0007(17) 0.0025(17)
C56 0.045(3) 0.021(2) 0.039(2) 0.0009(18) 0.001(2) -0.0086(19)
C57 0.042(3) 0.025(2) 0.038(2) -0.0036(19) -0.003(2) 0.003(2)
C58 0.032(2) 0.031(2) 0.033(2) -0.0015(18) 0.0003(19) 0.0039(19)
C59 0.028(2) 0.024(2) 0.030(2) 0.0032(17) 0.0020(18) -0.0041(18)
C60 0.027(2) 0.021(2) 0.027(2) 0.0013(15) -0.0063(17) 0.0010(17)

_geom_special_details            
;
All esds (except the esd in the dihedral angle between two l.s. planes)
are estimated using the full covariance matrix.  The cell esds are taken
into account individually in the estimation of esds in distances, angles
and torsion angles; correlations between esds in cell parameters are only
used when they are defined by crystal symmetry.  An approximate (isotropic)
treatment of cell esds is used for estimating esds involving l.s. planes.
;

loop_
_geom_bond_atom_site_label_1
_geom_bond_atom_site_label_2
_geom_bond_distance
_geom_bond_site_symmetry_2
_geom_bond_publ_flag
O1 C1 1.242(3) . ?
O2 C16 1.244(4) . ?
O3 C31 1.232(3) . ?
O4 C46 1.233(4) . ?
N1 C1 1.346(4) . ?
N2 C1 1.376(4) . ?
N2 C15 1.436(4) . ?
N2 C2 1.443(4) . ?
N3 C16 1.343(4) . ?
N4 C16 1.373(4) . ?
N4 C17 1.433(4) . ?
N4 C30 1.444(4) . ?
N5 C31 1.355(4) . ?
N6 C31 1.364(4) . ?
N6 C32 1.437(4) . ?
N6 C45 1.449(4) . ?
N7 C46 1.345(4) . ?
N8 C46 1.383(4) . ?
N8 C47 1.439(4) . ?
N8 C60 1.444(4) . ?
C2 C3 1.379(4) . ?
C2 C7 1.407(4) . ?
C3 C4 1.392(4) . ?
C4 C5 1.388(5) . ?
C5 C6 1.379(5) . ?
C6 C7 1.406(4) . ?
C7 C8 1.456(5) . ?
C8 C9 1.333(5) . ?
C9 C10 1.471(5) . ?
C10 C15 1.390(4) . ?
C10 C11 1.406(4) . ?
C11 C12 1.387(5) . ?
C12 C13 1.391(5) . ?
C13 C14 1.388(5) . ?
C14 C15 1.392(4) . ?
C17 C18 1.387(4) . ?
C17 C22 1.401(4) . ?
C18 C19 1.385(5) . ?
C19 C20 1.365(5) . ?
C20 C21 1.387(5) . ?
C21 C22 1.400(5) . ?
C22 C23 1.466(4) . ?
C23 C24 1.337(5) . ?
C24 C25 1.449(4) . ?
C25 C30 1.398(4) . ?
C25 C26 1.411(4) . ?
C26 C27 1.367(5) . ?
C27 C28 1.384(5) . ?
C28 C29 1.386(4) . ?
C29 C30 1.376(4) . ?
C32 C33 1.373(4) . ?
C32 C37 1.407(4) . ?
C33 C34 1.392(5) . ?
C34 C35 1.376(5) . ?
C35 C36 1.378(5) . ?
C36 C37 1.411(4) . ?
C37 C38 1.452(5) . ?
C38 C39 1.338(4) . ?
C39 C40 1.466(4) . ?
C40 C45 1.393(4) . ?
C40 C41 1.412(4) . ?
C41 C42 1.372(5) . ?
C42 C43 1.376(5) . ?
C43 C44 1.395(5) . ?
C44 C45 1.374(4) . ?
C47 C48 1.384(4) . ?
C47 C52 1.405(4) . ?
C48 C49 1.386(5) . ?
C49 C50 1.385(6) . ?
C50 C51 1.373(6) . ?
C51 C52 1.399(5) . ?
C52 C53 1.458(5) . ?
C53 C54 1.337(5) . ?
C54 C55 1.461(4) . ?
C55 C60 1.393(4) . ?
C55 C56 1.403(4) . ?
C56 C57 1.379(5) . ?
C57 C58 1.382(5) . ?
C58 C59 1.386(4) . ?
C59 C60 1.382(4) . ?

loop_
_geom_angle_atom_site_label_1
_geom_angle_atom_site_label_2
_geom_angle_atom_site_label_3
_geom_angle
_geom_angle_site_symmetry_1
_geom_angle_site_symmetry_3
_geom_angle_publ_flag
C1 N2 C15 119.3(3) . . ?
C1 N2 C2 121.8(3) . . ?
C15 N2 C2 116.5(3) . . ?
C16 N4 C17 122.1(3) . . ?
C16 N4 C30 118.7(3) . . ?
C17 N4 C30 116.7(2) . . ?
C31 N6 C32 122.9(3) . . ?
C31 N6 C45 118.9(3) . . ?
C32 N6 C45 116.4(2) . . ?
C46 N8 C47 121.7(3) . . ?
C46 N8 C60 119.3(3) . . ?
C47 N8 C60 116.3(2) . . ?
O1 C1 N1 122.4(3) . . ?
O1 C1 N2 120.4(3) . . ?
N1 C1 N2 117.2(3) . . ?
C3 C2 C7 122.1(3) . . ?
C3 C2 N2 119.3(3) . . ?
C7 C2 N2 118.5(3) . . ?
C2 C3 C4 119.9(4) . . ?
C5 C4 C3 119.0(4) . . ?
C6 C5 C4 121.2(4) . . ?
C5 C6 C7 120.9(4) . . ?
C6 C7 C2 116.9(3) . . ?
C6 C7 C8 119.6(3) . . ?
C2 C7 C8 123.6(3) . . ?
C9 C8 C7 128.1(4) . . ?
C8 C9 C10 126.0(4) . . ?
C15 C10 C11 118.4(3) . . ?
C15 C10 C9 122.9(3) . . ?
C11 C10 C9 118.6(3) . . ?
C12 C11 C10 120.6(4) . . ?
C11 C12 C13 120.0(4) . . ?
C14 C13 C12 120.2(4) . . ?
C13 C14 C15 119.5(4) . . ?
C10 C15 C14 121.3(3) . . ?
C10 C15 N2 119.7(3) . . ?
C14 C15 N2 119.0(3) . . ?
O2 C16 N3 121.3(3) . . ?
O2 C16 N4 121.4(3) . . ?
N3 C16 N4 117.2(3) . . ?
C18 C17 C22 121.0(3) . . ?
C18 C17 N4 120.0(3) . . ?
C22 C17 N4 119.0(3) . . ?
C19 C18 C17 119.9(4) . . ?
C20 C19 C18 120.1(4) . . ?
C19 C20 C21 120.6(4) . . ?
C20 C21 C22 120.7(4) . . ?
C21 C22 C17 117.7(3) . . ?
C21 C22 C23 119.3(3) . . ?
C17 C22 C23 122.9(3) . . ?
C24 C23 C22 127.4(4) . . ?
C23 C24 C25 127.3(4) . . ?
C30 C25 C26 117.1(3) . . ?
C30 C25 C24 123.0(3) . . ?
C26 C25 C24 119.8(3) . . ?
C27 C26 C25 121.5(4) . . ?
C26 C27 C28 120.0(4) . . ?
C27 C28 C29 120.0(4) . . ?
C30 C29 C28 119.9(4) . . ?
C29 C30 C25 121.5(3) . . ?
C29 C30 N4 119.4(3) . . ?
C25 C30 N4 119.1(3) . . ?
O3 C31 N5 121.9(3) . . ?
O3 C31 N6 121.5(3) . . ?
N5 C31 N6 116.6(3) . . ?
C33 C32 C37 120.9(3) . . ?
C33 C32 N6 120.6(3) . . ?
C37 C32 N6 118.5(3) . . ?
C32 C33 C34 120.2(4) . . ?
C35 C34 C33 120.0(4) . . ?
C34 C35 C36 120.3(4) . . ?
C35 C36 C37 120.9(4) . . ?
C32 C37 C36 117.6(3) . . ?
C32 C37 C38 123.2(3) . . ?
C36 C37 C38 119.3(3) . . ?
C39 C38 C37 127.8(4) . . ?
C38 C39 C40 126.2(4) . . ?
C45 C40 C41 116.9(3) . . ?
C45 C40 C39 123.6(3) . . ?
C41 C40 C39 119.4(3) . . ?
C42 C41 C40 121.6(4) . . ?
C41 C42 C43 120.0(4) . . ?
C42 C43 C44 119.9(4) . . ?
C45 C44 C43 119.7(4) . . ?
C44 C45 C40 121.9(3) . . ?
C44 C45 N6 119.1(3) . . ?
C40 C45 N6 119.0(3) . . ?
O4 C46 N7 123.2(3) . . ?
O4 C46 N8 120.6(3) . . ?
N7 C46 N8 116.2(3) . . ?
C48 C47 C52 121.1(3) . . ?
C48 C47 N8 120.1(3) . . ?
C52 C47 N8 118.8(3) . . ?
C47 C48 C49 120.4(4) . . ?
C50 C49 C48 119.3(5) . . ?
C51 C50 C49 120.2(4) . . ?
C50 C51 C52 122.0(4) . . ?
C51 C52 C47 116.9(4) . . ?
C51 C52 C53 120.4(4) . . ?
C47 C52 C53 122.7(3) . . ?
C54 C53 C52 128.2(4) . . ?
C53 C54 C55 126.5(4) . . ?
C60 C55 C56 117.1(3) . . ?
C60 C55 C54 123.1(3) . . ?
C56 C55 C54 119.7(3) . . ?
C57 C56 C55 121.9(4) . . ?
C56 C57 C58 119.6(4) . . ?
C57 C58 C59 119.9(4) . . ?
C60 C59 C58 120.1(4) . . ?
C59 C60 C55 121.4(3) . . ?
C59 C60 N8 119.3(3) . . ?
C55 C60 N8 119.3(3) . . ?

loop_
_geom_hbond_atom_site_label_D
_geom_hbond_atom_site_label_H
_geom_hbond_atom_site_label_A
_geom_hbond_distance_DH
_geom_hbond_distance_HA
_geom_hbond_distance_DA
_geom_hbond_angle_DHA
_geom_hbond_site_symmetry_A
N1 H1A O3 1.07(4) 1.76(4) 2.831(4) 172(3) 2_766
N3 H3A O2 0.91(4) 1.98(4) 2.883(4) 177(3) 2_566
N5 H5A O1 0.84(3) 2.09(3) 2.919(4) 172(3) 2_766
N7 H7A O4 0.86(4) 2.04(4) 2.894(4) 178(3) 2_656

_diffrn_measured_fraction_theta_max 0.991
_diffrn_reflns_theta_full        23.37
_diffrn_measured_fraction_theta_full 0.991
_refine_diff_density_max         0.225
_refine_diff_density_min         -0.191
_refine_diff_density_rms         0.049

